n = 10
Q1 = [0 0 9 33 9 0 0 34 22 39; 0 0 0 33 0 19 0 7 0 23; 0 0 0 0 31 27 46 42 29 20; 0 0 0 0 6 5 0 0 0 19; 0 0 0 0 0 0 14 13 47 35; 0 0 0 0 0 0 19 22 36 47; 0 0 0 0 0 0 0 30 13 13; 0 0 0 0 0 0 0 0 16 41; 0 0 0 0 0 0 0 0 0 8; 0 0 0 0 0 0 0 0 0 0]
Q2 = [0.0 0.0 44.0 8.0 45.0 0.0 0.0 13.0 41.0 4.0; 0.0 0.0 0.0 5.0 0.0 32.0 0.0 41.0 0.0 26.0; 0.0 0.0 0.0 0.0 9.0 7.0 1.0 1.0 18.0 43.0; 0.0 0.0 0.0 0.0 42.0 42.0 0.0 0.0 0.0 39.0; 0.0 0.0 0.0 0.0 0.0 0.0 46.0 42.0 0.0 12.0; 0.0 0.0 0.0 0.0 0.0 0.0 39.0 41.0 4.0 0.0; 0.0 0.0 0.0 0.0 0.0 0.0 0.0 7.0 36.0 39.0; 0.0 0.0 0.0 0.0 0.0 0.0 0.0 0.0 43.0 2.0; 0.0 0.0 0.0 0.0 0.0 0.0 0.0 0.0 0.0 42.0; 0.0 0.0 0.0 0.0 0.0 0.0 0.0 0.0 0.0 0.0]
Q3 = [0 63 3 5 5 63 63 1 0 6; 0 0 63 22 63 0 63 14 63 6; 0 0 0 63 10 16 5 18 7 0; 0 0 0 0 13 12 63 63 63 1; 0 0 0 0 0 63 1 3 3 1; 0 0 0 0 0 0 5 0 19 10; 0 0 0 0 0 0 0 10 9 2; 0 0 0 0 0 0 0 0 0 11; 0 0 0 0 0 0 0 0 0 6; 0 0 0 0 0 0 0 0 0 0]
